NAME : portcgen-21-12
COMMENT : portcgen N=21, seed=12
TYPE : TSP
DIMENSION : 21
EDGE_WEIGHT_TYPE : EUC_2D
NODE_COORD_SECTION
1 109808 224254
2 2818 33784
3 -198623 -98586
4 141937 262464
5 -323041 -250596
6 -44460 116847
7 -14784 432762
8 303761 168440
9 170812 231961
10 121727 -11116
11 269116 -17253
12 328585 272086
13 132674 -216612
14 94623 -23440
15 -285202 308657
16 411749 603418
17 -334382 -199528
18 194625 -14651
19 -153450 -348920
20 63917 16261
21 447693 -76532
